17	4
15	12	12	11	
0	0	0	0	0	3	2	3	4	
4	0	5	5	4	3	6	17	17	
2	5	0	2	0	1	11	
8	0	0	4	0	3	5	17	17	
1	3	5	10	3	1	9	
200	0	0	1	2	3	7	8	12	
100	0	0	0	2	3	9	10	13	
250	9	0	10	5	2	15	17	
250	8	1	0	6	2	14	17	
200	4	0	0	0	2	17	17	
75	0	0	0	2	1	17	
250	5	8	9	0	1	17	
1	8	5	0	0	2	14	17	
3	9	0	7	5	3	16	17	17	
2	2	3	2	0	2	16	17	
5	10	0	0	0	1	17	
0	0	0	0	0	0	
